200
150
100
99
97
97
96
96
96
95
95
95
95
94
94
93
93
93
93
92
92
91
90
90
90
90
90
90
90
90
89
89
88
88
88
87
86
86
86
84
84
84
84
83
83
81
81
80
80
80
78
78
78
77
77
77
76
75
75
75
74
73
73
73
72
71
71
71
70
70
70
69
69
69
68
67
67
67
66
66
65
64
64
63
63
63
62
62
62
62
62
62
61
61
61
60
60
60
59
59
59
58
58
58
58
57
57
57
56
55
55
55
55
53
53
53
52
51
51
51
51
50
50
50
49
49
49
49
48
47
46
46
45
45
45
44
44
44
44
43
43
43
43
43
42
41
41
41
40
40
40
40
40
39
39
39
39
39
38
37
37
36
36
35
34
34
34
34
33
33
32
32
32
31
31
31
31
30
30
30
29
28
27
27
26
25
25
25
24
24
24
23
23
23
22
22
22
22
21
21
21
20
